computational_data/real_data/solutions/penguins_trial_018_lex.sol
Optimal - objective value 5.28358300
      0 r_0                         0                       1
      1 r_1                         0                       1
      2 r_2                         0                       1
      3 r_3                         0                       1
      4 r_4                         0                0.985075
      5 r_5                         0                0.985075
      6 r_6                         1                0.985075
      7 r_7                         0                0.955224
      8 r_8                         0                0.925373
      9 r_9                         0                0.925373
     10 r_10                        0                0.925373
     11 r_11                        0                0.925373
     12 r_12                        1                0.910448
     13 r_13                        1                0.835821
     14 r_14                        1                0.791045
     15 r_15                        1                0.776119
     16 b_0                         0                       1
     17 b_1                         0                       1
     18 b_2                         0                       1
     19 b_3                         0                       1
     20 b_4                         0                0.985075
     21 b_5                         1                0.985075
     22 b_6                         0                0.985075
     23 b_7                         0                0.955224
     24 b_8                         0                0.925373
     25 b_9                         0                0.925373
     26 b_10                        0                0.925373
     27 b_11                        0                0.925373
     28 b_12                        0                0.910448
     29 b_13                        0                0.835821
     30 b_14                        0                0.791045
     31 b_15                        0                0.776119
